language Essence 1.3

letting class be
        function(1 --> 2, 2 --> 5, 3 --> 9, 4 --> 2, 5 --> 6, 6 --> 3, 7 --> 7, 8 --> 2, 9 --> 6, 10 --> 8, 11 --> 4,
                 12 --> 8, 13 --> 9, 14 --> 1, 15 --> 2, 16 --> 3, 17 --> 5, 18 --> 8, 19 --> 4, 20 --> 3, 21 --> 7,
                 22 --> 3, 23 --> 8, 24 --> 9, 25 --> 4, 26 --> 1, 27 --> 6, 28 --> 2, 29 --> 7)
letting deck_length be 64
letting deck_width be 88
letting length be
        function(1 --> 56, 2 --> 18, 3 --> 30, 4 --> 55, 5 --> 40, 6 --> 48, 7 --> 43, 8 --> 55, 9 --> 47, 10 --> 34,
                 11 --> 16, 12 --> 20, 13 --> 21, 14 --> 58, 15 --> 23, 16 --> 31, 17 --> 36, 18 --> 41, 19 --> 3,
                 20 --> 13, 21 --> 30, 22 --> 16, 23 --> 5, 24 --> 12, 25 --> 25, 26 --> 13, 27 --> 1, 28 --> 27,
                 29 --> 36)
letting n_classes be 9
letting n_containers be 29
letting separation be function()
letting width be
        function(1 --> 31, 2 --> 1, 3 --> 1, 4 --> 1, 5 --> 1, 6 --> 4, 7 --> 1, 8 --> 3, 9 --> 1, 10 --> 1, 11 --> 1,
                 12 --> 1, 13 --> 1, 14 --> 48, 15 --> 1, 16 --> 1, 17 --> 1, 18 --> 1, 19 --> 1, 20 --> 1, 21 --> 1,
                 22 --> 1, 23 --> 1, 24 --> 1, 25 --> 2, 26 --> 1, 27 --> 1, 28 --> 1, 29 --> 2)
